cvc5/15971.corecstrs.readable_easy.smt2
(set-info :smt-lib-version 2.6)
(set-logic QF_SLIA)
(set-info :source |
Generated by: Andrew Reynolds
Generated on: 2018-04-25
Generator: Kudzu, converted to v2.6 by CVC4
Application: Symbolic Execution of Javascript
Target solver: Kaluza
Publications: "A symbolic execution framework for JavaScript" by P. Saxena, D. Akhawe, S. Hanna, F. Mao, S. McCamant, and D. Song, 2010.
|)
(set-info :license "https://creativecommons.org/licenses/by/4.0/")
(set-info :category "industrial")
(set-info :status unknown)



(declare-fun T_1 () Bool)
(declare-fun var_0xINPUT_193107 () String)
(declare-const part_0_1380 String)
(declare-const part_1_6678 String)
(assert (= T_1 (= var_0xINPUT_193107 "Type")))
(assert T_1)
(assert (= (str.split_at var_0xINPUT_193107 "-" 0) part_0_1380))
(assert (= (str.split_at var_0xINPUT_193107 "-" 1) part_1_6678))
(check-sat)

(get-model)
